100
100
100
99
96
96
95
94
94
93
91
89
89
88
81
80
75
74
73
72
69
69
69
68
64
63
63
62
61
58
57
57
57
57
56
56
54
54
54
51
49
49
49
48
48
48
48
48
48
47
47
47
44
43
43
41
40
40
39
38
38
36
35
33
31
30
30
30
30
29
29
28
25
25
23
23
20
19
18
16
15
14
14
14
12
12
11
10
9
9
8
8
8
7
7
7
5
4
4
3
2
2
